c  d.cnf
c  question3.2.3
c  BUID is U85845640c
p cnf 257 429
-7 8 0
-7 3 0
7 -8 -3 0
-6 -8 0
6 8 0
-12 11 0
-12 6 0
12 -11 -6 0
-11 -11 0
11 11 0
-17 14 0
-17 11 0
17 -14 -11 0
-16 -14 0
16 14 0
-22 17 0
-22 16 0
22 -17 -16 0
-21 -17 0
21 17 0
-27 20 0
-27 21 0
27 -20 -21 0
-26 -20 0
26 20 0
-32 23 0
-32 26 0
32 -23 -26 0
-31 -23 0
31 23 0
-37 26 0
-37 31 0
37 -26 -31 0
-36 -26 0
36 26 0
-42 29 0
-42 36 0
42 -29 -36 0
-41 -29 0
41 29 0
-47 32 0
-47 41 0
47 -32 -41 0
-46 -32 0
46 32 0
-52 35 0
-52 46 0
52 -35 -46 0
-51 -35 0
51 35 0
-57 38 0
-57 51 0
57 -38 -51 0
-56 -38 0
56 38 0
-62 41 0
-62 56 0
62 -41 -56 0
-61 -41 0
61 41 0
-67 44 0
-67 61 0
67 -44 -61 0
-66 -44 0
66 44 0
-72 47 0
-72 66 0
72 -47 -66 0
-71 -47 0
71 47 0
-77 50 0
-77 71 0
77 -50 -71 0
-76 -50 0
76 50 0
-82 53 0
-82 76 0
82 -53 -76 0
-81 -53 0
81 53 0
-87 56 0
-87 81 0
87 -56 -81 0
-86 -56 0
86 56 0
-92 59 0
-92 86 0
92 -59 -86 0
-91 -59 0
91 59 0
-97 62 0
-97 91 0
97 -62 -91 0
-96 -62 0
96 62 0
-102 65 0
-102 96 0
102 -65 -96 0
-101 -65 0
101 65 0
-107 68 0
-107 101 0
107 -68 -101 0
-106 -68 0
106 68 0
-112 71 0
-112 106 0
112 -71 -106 0
-111 -71 0
111 71 0
-117 74 0
-117 111 0
117 -74 -111 0
-116 -74 0
116 74 0
-122 77 0
-122 116 0
122 -77 -116 0
-121 -77 0
121 77 0
-127 80 0
-127 121 0
127 -80 -121 0
-126 -80 0
126 80 0
-132 83 0
-132 126 0
132 -83 -126 0
-131 -83 0
131 83 0
-137 86 0
-137 131 0
137 -86 -131 0
-136 -86 0
136 86 0
-142 89 0
-142 136 0
142 -89 -136 0
-141 -89 0
141 89 0
-147 92 0
-147 141 0
147 -92 -141 0
-146 -92 0
146 92 0
-152 95 0
-152 146 0
152 -95 -146 0
-151 -95 0
151 95 0
-157 98 0
-157 151 0
157 -98 -151 0
-156 -98 0
156 98 0
-162 101 0
-162 156 0
162 -101 -156 0
-161 -101 0
161 101 0
-167 104 0
-167 161 0
167 -104 -161 0
-166 -104 0
166 104 0
-172 107 0
-172 166 0
172 -107 -166 0
-171 -107 0
171 107 0
-177 110 0
-177 171 0
177 -110 -171 0
-176 -110 0
176 110 0
-182 113 0
-182 176 0
182 -113 -176 0
-181 -113 0
181 113 0
-187 116 0
-187 181 0
187 -116 -181 0
-186 -116 0
186 116 0
-192 119 0
-192 186 0
192 -119 -186 0
-191 -119 0
191 119 0
-197 122 0
-197 191 0
197 -122 -191 0
-196 -122 0
196 122 0
-202 125 0
-202 196 0
202 -125 -196 0
-201 -125 0
201 125 0
-207 128 0
-207 201 0
207 -128 -201 0
-206 -128 0
206 128 0
-212 131 0
-212 206 0
212 -131 -206 0
-211 -131 0
211 131 0
-217 134 0
-217 211 0
217 -134 -211 0
-216 -134 0
216 134 0
-222 137 0
-222 216 0
222 -137 -216 0
-221 -137 0
221 137 0
-227 140 0
-227 221 0
227 -140 -221 0
-226 -140 0
226 140 0
-232 143 0
-232 226 0
232 -143 -226 0
-231 -143 0
231 143 0
-237 146 0
-237 231 0
237 -146 -231 0
-236 -146 0
236 146 0
-242 149 0
-242 236 0
242 -149 -236 0
-241 -149 0
241 149 0
-247 152 0
-247 241 0
247 -152 -241 0
-246 -152 0
246 152 0
-252 155 0
-252 246 0
252 -155 -246 0
-251 -155 0
251 155 0
-257 158 0
-257 251 0
257 -158 -251 0
-256 -158 0
256 158 0
-262 161 0
-262 256 0
262 -161 -256 0
-261 -161 0
261 161 0
-267 164 0
-267 261 0
267 -164 -261 0
-266 -164 0
266 164 0
-272 167 0
-272 266 0
272 -167 -266 0
-271 -167 0
271 167 0
-277 170 0
-277 271 0
277 -170 -271 0
-276 -170 0
276 170 0
-282 173 0
-282 276 0
282 -173 -276 0
-281 -173 0
281 173 0
-287 176 0
-287 281 0
287 -176 -281 0
-286 -176 0
286 176 0
-292 179 0
-292 286 0
292 -179 -286 0
-291 -179 0
291 179 0
-297 182 0
-297 291 0
297 -182 -291 0
-296 -182 0
296 182 0
-302 185 0
-302 296 0
302 -185 -296 0
-301 -185 0
301 185 0
-307 188 0
-307 301 0
307 -188 -301 0
-306 -188 0
306 188 0
-312 191 0
-312 306 0
312 -191 -306 0
-311 -191 0
311 191 0
-317 194 0
-317 311 0
317 -194 -311 0
-316 -194 0
316 194 0
-322 197 0
-322 316 0
322 -197 -316 0
-321 -197 0
321 197 0
-327 200 0
-327 321 0
327 -200 -321 0
-326 -200 0
326 200 0
-332 203 0
-332 326 0
332 -203 -326 0
-331 -203 0
331 203 0
-337 206 0
-337 331 0
337 -206 -331 0
-336 -206 0
336 206 0
-342 209 0
-342 336 0
342 -209 -336 0
-341 -209 0
341 209 0
-347 212 0
-347 341 0
347 -212 -341 0
-346 -212 0
346 212 0
-352 215 0
-352 346 0
352 -215 -346 0
-351 -215 0
351 215 0
-357 218 0
-357 351 0
357 -218 -351 0
-356 -218 0
356 218 0
-362 221 0
-362 356 0
362 -221 -356 0
-361 -221 0
361 221 0
-367 224 0
-367 361 0
367 -224 -361 0
-366 -224 0
366 224 0
-372 227 0
-372 366 0
372 -227 -366 0
-371 -227 0
371 227 0
-377 230 0
-377 371 0
377 -230 -371 0
-376 -230 0
376 230 0
-382 233 0
-382 376 0
382 -233 -376 0
-381 -233 0
381 233 0
-387 236 0
-387 381 0
387 -236 -381 0
-386 -236 0
386 236 0
-392 239 0
-392 386 0
392 -239 -386 0
-391 -239 0
391 239 0
-397 242 0
-397 391 0
397 -242 -391 0
-396 -242 0
396 242 0
-402 245 0
-402 396 0
402 -245 -396 0
-401 -245 0
401 245 0
-407 248 0
-407 401 0
407 -248 -401 0
-406 -248 0
406 248 0
-412 251 0
-412 406 0
412 -251 -406 0
-411 -251 0
411 251 0
-417 254 0
-417 411 0
417 -254 -411 0
-416 -254 0
416 254 0
-422 257 0
-422 416 0
422 -257 -416 0
-421 -257 0
421 257 0
-427 260 0
-427 421 0
427 -260 -421 0
-426 -260 0
426 260 0
-3 0
-4 0
-426 0
427 0
